/* Objective function */
min:12 x1 + 10 y1 + 2s1 + 14 x2 + 12 y2 + 2 s2 + 16 x3 +  14 y3 + 2 s3 + 18 x4 + 16 y4 + 2 s4;

/* Constraints*/
x1 + y1 -s1 =150;
s1 + x2 + y2 - s2 =200;
s2 + x3 + y3 - s3 =250;
s3 + x4 + y4 - s4 =150;

x1 - 200b1 >= 0;
x2 - 200b2 >= 0;
x3 - 200b3 >= 0;
x4 - 200b4 >= 0;

y1- 1200b1 <= 0;
y2- 1200b2 <= 0;
y3- 1200b3 <= 0;
y4- 1200b4 <= 0;


0 <= x1 <= 200;
0 <= x2 <= 200;
0 <= x3 <= 200;
0 <= x4 <= 200;

bin b1 b2 b3 b4;









 